p cnf 516 2168
1 -2 0
2 -1 0
3 -4 0
4 -3 0
5 -6 0
6 -5 0
7 -8 0
8 -7 0
9 -10 0
10 -9 0
11 -12 0
12 -11 0
13 -14 0
14 -13 0
15 -16 0
16 -15 0
17 -18 0
18 -17 0
19 -20 0
20 -19 0
21 -22 0
22 -21 0
23 -24 0
24 -23 0
25 -26 0
26 -25 0
27 -28 0
28 -27 0
29 -30 0
30 -29 0
31 -32 0
32 -31 0
33 -34 0
34 -33 0
35 -36 0
36 -35 0
37 -38 0
38 -37 0
39 -40 0
40 -39 0
41 -42 0
42 -41 0
43 -44 0
44 -43 0
45 -46 0
46 -45 0
47 -48 0
48 -47 0
49 -50 0
50 -49 0
51 -52 0
52 -51 0
53 -54 0
54 -53 0
55 -56 0
56 -55 0
57 -58 0
-57 58 0
59 -60 0
60 -59 0
61 -62 0
62 -61 0
63 -64 0
64 -63 0
65 -66 0
66 -65 0
67 -68 0
68 -67 0
69 -70 0
70 -69 0
71 -72 0
72 -71 0
73 -74 0
-73 74 0
75 -76 0
76 -75 0
77 -78 0
78 -77 0
79 -80 0
80 -79 0
81 -82 0
82 -81 0
83 -84 0
-83 84 0
85 -86 0
86 -85 0
87 -88 0
-87 88 0
89 -90 0
90 -89 0
91 -92 0
-91 92 0
93 -94 0
-93 94 0
95 -96 0
96 -95 0
97 -98 0
98 -97 0
99 -100 0
-99 100 0
101 -102 0
102 -101 0
103 -104 0
104 -103 0
105 -106 0
106 -105 0
107 -108 0
108 -107 0
15 109 0
33 109 0
-15 -33 -109 0
9 110 0
27 110 0
-9 -27 -110 0
23 111 0
5 111 0
-23 -111 -5 0
3 112 0
21 112 0
-3 -21 -112 0
1 113 0
19 113 0
-1 -19 -113 0
21 114 0
-113 114 0
-21 113 -114 0
3 115 0
-113 115 0
-3 113 -115 0
23 116 0
116 -112 -115 -114 0
-23 -116 115 0
-23 -116 114 0
-23 -116 112 0
5 117 0
117 -112 -115 -114 0
-117 115 -5 0
-117 114 -5 0
-117 112 -5 0
7 118 0
-116 -111 -117 118 0
117 -118 -7 0
116 -118 -7 0
111 -118 -7 0
25 119 0
7 119 0
-25 -119 -7 0
25 120 0
-116 -111 -117 120 0
-25 117 -120 0
-25 116 -120 0
-25 111 -120 0
9 121 0
121 -120 -119 -118 0
-9 120 -121 0
-9 119 -121 0
-9 118 -121 0
27 122 0
122 -120 -119 -118 0
-27 -122 120 0
-27 -122 119 0
-27 -122 118 0
29 123 0
-122 -110 123 -121 0
-123 122 -29 0
-123 121 -29 0
-123 110 -29 0
11 124 0
29 124 0
-11 -29 -124 0
11 125 0
-122 125 -110 -121 0
-125 122 -11 0
-125 121 -11 0
-125 110 -11 0
13 126 0
-125 -123 126 -124 0
125 -13 -126 0
124 -13 -126 0
123 -13 -126 0
31 127 0
-125 -123 127 -124 0
-31 125 -127 0
-31 -127 124 0
-31 -127 123 0
31 128 0
13 128 0
-31 -13 -128 0
33 129 0
129 -127 -126 -128 0
128 -129 -33 0
127 -129 -33 0
126 -129 -33 0
15 130 0
130 -127 -126 -128 0
-130 -15 128 0
-130 -15 127 0
-130 -15 126 0
-17 130 0
129 -17 0
-17 109 0
3 21 -131 0
-113 3 -131 0
-113 21 -131 0
131 -3 -21 0
-3 131 113 0
-21 131 113 0
-132 5 23 0
-132 131 23 0
-132 131 5 0
-23 132 -5 0
132 -23 -131 0
132 -5 -131 0
25 7 -133 0
25 132 -133 0
7 132 -133 0
-25 133 -7 0
133 -25 -132 0
133 -7 -132 0
-134 9 27 0
-134 9 133 0
-134 133 27 0
134 -9 -27 0
134 -9 -133 0
134 -27 -133 0
-135 29 11 0
-135 134 11 0
-135 134 29 0
135 -11 -29 0
135 -11 -134 0
135 -29 -134 0
-136 31 13 0
-136 31 135 0
-136 13 135 0
136 -31 -13 0
136 -31 -135 0
136 -13 -135 0
33 15 -137 0
136 15 -137 0
136 33 -137 0
137 -15 -33 0
137 -15 -136 0
137 -33 -136 0
17 35 -138 137 0
17 -35 -138 -137 0
35 -17 -138 -137 0
-35 -17 -138 137 0
138 -17 -35 -137 0
138 35 -17 137 0
17 138 -35 137 0
17 138 35 -137 0
-53 -138 0
139 -39 0
139 -37 0
-139 39 37 0
139 -140 -41 0
-139 -140 41 0
-139 -41 140 0
139 140 41 0
-141 -21 19 0
-141 -19 21 0
141 -19 -21 0
21 19 141 0
-142 -21 19 0
-142 -19 21 0
142 -19 -21 0
21 19 142 0
142 143 0
-19 143 0
-19 143 142 0
-142 -143 19 0
-21 144 0
-19 144 0
-144 21 19 0
-23 144 -145 0
-144 23 -145 0
-23 -144 145 0
145 144 23 0
-143 -146 145 0
-146 143 -145 0
-143 146 -145 0
143 146 145 0
-19 -147 142 0
-142 -147 19 0
-142 147 -19 0
147 19 142 0
-39 -148 37 0
39 -148 -37 0
148 -37 -39 0
148 39 37 0
-19 149 0
37 149 0
19 -37 -149 0
-150 -149 -148 0
-147 -150 -149 0
-147 -150 -148 0
148 149 150 0
147 149 150 0
147 148 150 0
-146 -151 150 0
-140 -151 150 0
-140 -146 -151 0
-150 146 151 0
-150 140 151 0
146 140 151 0
-143 152 0
-143 152 145 0
145 152 0
143 -152 -145 0
-23 153 0
153 -144 0
23 144 -153 0
-25 153 -154 0
25 -153 -154 0
-25 -153 154 0
25 153 154 0
154 -152 -155 0
-154 152 -155 0
-152 -154 155 0
154 152 155 0
156 -41 0
-139 156 0
41 139 -156 0
156 -157 -43 0
43 -156 -157 0
-156 -43 157 0
43 156 157 0
-157 -158 -155 0
-157 -158 151 0
-158 -155 151 0
158 155 157 0
158 -151 157 0
158 -151 155 0
159 -43 0
159 -156 0
43 156 -159 0
-45 159 -160 0
-160 -159 45 0
-45 160 -159 0
159 160 45 0
160 -161 -158 0
158 -160 -161 0
-160 -158 161 0
158 160 161 0
162 -152 0
154 162 0
162 154 -152 0
-154 152 -162 0
-25 163 0
163 -153 0
25 153 -163 0
-27 163 -164 0
-164 27 -163 0
-27 -163 164 0
163 27 164 0
-165 164 -162 0
162 -164 -165 0
165 -164 -162 0
165 162 164 0
-166 165 9 161 0
-166 -9 165 -161 0
-166 -9 -165 161 0
-166 9 -161 -165 0
-9 -161 166 -165 0
9 166 -165 161 0
165 9 -161 166 0
-9 165 166 161 0
-166 0
51 167 0
33 167 0
-51 -167 -33 0
45 168 0
27 168 0
-45 -27 -168 0
21 169 0
39 169 0
-21 -39 -169 0
19 170 0
37 170 0
-19 -37 -170 0
39 171 0
-170 171 0
-171 -39 170 0
21 172 0
172 -170 0
-21 170 -172 0
23 173 0
-171 -169 173 -172 0
172 -23 -173 0
-23 171 -173 0
-23 -173 169 0
41 174 0
-171 -169 -172 174 0
172 -174 -41 0
171 -174 -41 0
-174 169 -41 0
23 175 0
41 175 0
-23 -41 -175 0
43 176 0
-173 -174 176 -175 0
-176 175 -43 0
-176 -43 174 0
-176 173 -43 0
25 177 0
177 -173 -174 -175 0
-25 -177 175 0
-25 -177 174 0
-25 -177 173 0
25 178 0
43 178 0
-25 -43 -178 0
27 179 0
-176 -178 -177 179 0
-27 -179 178 0
-27 177 -179 0
-27 -179 176 0
45 180 0
180 -176 -178 -177 0
-45 -180 178 0
-45 177 -180 0
-45 -180 176 0
47 181 0
181 -179 -180 -168 0
180 -181 -47 0
-181 -47 179 0
-181 -47 168 0
47 182 0
29 182 0
-182 -47 -29 0
29 183 0
-179 -180 183 -168 0
180 -183 -29 0
-183 179 -29 0
-183 168 -29 0
49 184 0
-182 -181 -183 184 0
-49 -184 183 0
-49 -184 182 0
181 -49 -184 0
31 185 0
49 185 0
-31 -49 -185 0
31 186 0
-182 -181 -183 186 0
-31 -186 183 0
-31 -186 182 0
-31 181 -186 0
33 187 0
-185 -186 187 -184 0
-187 186 -33 0
-187 185 -33 0
-187 184 -33 0
51 188 0
188 -185 -186 -184 0
-51 186 -188 0
-51 185 -188 0
-51 184 -188 0
188 -53 0
187 -53 0
167 -53 0
39 -189 21 0
-170 -189 21 0
-170 39 -189 0
189 -21 -39 0
189 -21 170 0
189 -39 170 0
-190 23 41 0
189 -190 23 0
189 -190 41 0
190 -23 -41 0
190 -23 -189 0
190 -41 -189 0
43 25 -191 0
25 -191 190 0
43 -191 190 0
191 -25 -43 0
191 -25 -190 0
191 -43 -190 0
-192 27 45 0
-192 191 45 0
-192 27 191 0
-45 -27 192 0
192 -45 -191 0
192 -27 -191 0
-193 29 47 0
-193 192 47 0
-193 192 29 0
-47 193 -29 0
193 -47 -192 0
193 -29 -192 0
49 31 -194 0
31 -194 193 0
49 -194 193 0
194 -31 -49 0
194 -31 -193 0
194 -49 -193 0
51 33 -195 0
51 194 -195 0
33 194 -195 0
-51 195 -33 0
195 -51 -194 0
195 -33 -194 0
53 35 195 -196 0
35 -195 -196 -53 0
53 -35 -195 -196 0
-35 195 -196 -53 0
196 -35 -53 -195 0
53 -35 195 196 0
35 195 196 -53 0
53 35 -195 196 0
-71 -196 0
192 29 -197 47 0
-192 -47 29 -197 0
-192 -197 47 -29 0
-47 192 -197 -29 0
197 -29 -47 -192 0
192 47 197 -29 0
-47 192 29 197 0
-192 29 47 197 0
189 -198 23 41 0
-189 -41 -198 23 0
-23 -189 -198 41 0
189 -23 -41 -198 0
198 -23 -41 -189 0
189 -23 198 41 0
189 -41 198 23 0
-189 198 23 41 0
-199 170 39 21 0
-170 -199 -39 21 0
-170 -21 -199 39 0
-21 -199 -39 170 0
199 -21 -39 -170 0
-21 170 39 199 0
-39 170 199 21 0
-170 39 199 21 0
19 -200 -37 0
-19 -200 37 0
200 -19 -37 0
19 37 200 0
55 201 0
201 -200 0
200 -55 -201 0
57 -202 -201 0
-199 -202 -201 0
57 -199 -202 0
201 -57 202 0
201 202 199 0
-57 202 199 0
202 -203 198 0
59 202 -203 0
59 -203 198 0
203 -198 -202 0
203 -202 -59 0
203 -198 -59 0
43 25 190 -204 0
25 -190 -204 -43 0
43 -25 -190 -204 0
-25 190 -204 -43 0
204 -25 -43 -190 0
43 -25 190 204 0
25 190 204 -43 0
43 25 -190 204 0
-205 61 204 0
-205 61 203 0
-205 203 204 0
205 -61 -204 0
205 -61 -203 0
-203 205 -204 0
27 -206 191 45 0
-45 -191 27 -206 0
-191 -27 -206 45 0
-45 -27 -206 191 0
206 -27 -45 -191 0
-27 206 191 45 0
-45 206 27 191 0
-191 206 27 45 0
63 206 -207 0
63 205 -207 0
206 205 -207 0
207 -63 -206 0
207 -63 -205 0
207 -205 -206 0
207 -208 197 0
207 -208 65 0
-208 65 197 0
208 -197 -207 0
208 -207 -65 0
208 -197 -65 0
49 31 193 -209 0
31 -193 -49 -209 0
-31 49 -193 -209 0
-31 193 -49 -209 0
209 -31 -49 -193 0
-31 209 49 193 0
209 31 193 -49 0
209 49 31 -193 0
208 209 -210 0
209 67 -210 0
208 67 -210 0
-208 210 -209 0
210 -209 -67 0
-208 210 -67 0
51 33 -211 194 0
-51 33 -211 -194 0
51 -211 -194 -33 0
-51 -211 194 -33 0
211 -33 -51 -194 0
51 194 211 -33 0
-51 33 194 211 0
51 33 -194 211 0
69 -212 211 0
-212 210 211 0
69 -212 210 0
-211 212 -69 0
-210 -211 212 0
212 -69 -210 0
-213 71 212 196 0
-213 -71 -212 196 0
-213 -212 71 -196 0
-213 -71 212 -196 0
213 -71 -212 -196 0
213 71 212 -196 0
213 -71 212 196 0
213 -212 71 196 0
-89 -213 0
-214 -75 73 0
-73 75 -214 0
214 -73 -75 0
75 73 214 0
-215 37 -55 0
55 -215 -37 0
215 -37 -55 0
55 37 215 0
73 216 0
-215 216 0
-73 -216 215 0
-217 55 -57 0
-217 57 -55 0
217 -55 -57 0
57 55 217 0
37 218 0
55 218 0
-37 -55 -218 0
148 217 -219 218 0
-217 -219 218 -148 0
217 -219 -148 -218 0
-217 148 -219 -218 0
-217 -148 219 -218 0
148 217 219 -218 0
-217 148 218 219 0
217 218 -148 219 0
-220 -219 -216 0
-214 -220 -219 0
-214 -220 -216 0
220 219 216 0
220 219 214 0
220 214 216 0
-75 221 0
-73 221 0
75 73 -221 0
-77 221 -222 0
77 -222 -221 0
-77 222 -221 0
77 222 221 0
-217 -223 -148 0
-223 -148 -218 0
-217 -223 -218 0
223 148 217 0
223 148 218 0
223 217 218 0
-57 224 0
224 -55 0
57 55 -224 0
-225 224 -59 0
-225 59 -224 0
225 -224 -59 0
59 225 224 0
223 -226 225 140 0
-225 -226 -223 140 0
-140 -226 -223 225 0
223 -225 -140 -226 0
-225 -140 226 -223 0
223 -140 226 225 0
223 -225 226 140 0
226 -223 225 140 0
-226 -222 -227 0
220 -226 -227 0
220 -222 -227 0
226 222 227 0
226 -220 227 0
-220 222 227 0
-77 228 0
228 -221 0
77 221 -228 0
-229 -79 228 0
-229 -228 79 0
-79 229 -228 0
229 228 79 0
-230 229 -227 0
-229 -230 227 0
-229 230 -227 0
229 230 227 0
-225 -231 140 0
223 -231 140 0
223 -225 -231 0
-140 231 225 0
231 -140 -223 0
231 -223 225 0
232 -59 0
232 -224 0
59 224 -232 0
-61 232 -233 0
61 -233 -232 0
-61 233 -232 0
61 232 233 0
-234 -157 140 0
-140 -234 157 0
234 -140 -157 0
234 140 157 0
234 231 233 -235 0
234 -231 -233 -235 0
-234 -231 233 -235 0
-234 231 -233 -235 0
-234 -231 -233 235 0
-234 231 235 233 0
234 231 -233 235 0
234 -231 235 233 0
25 230 235 0
25 -230 -235 0
-25 -230 235 0
-25 230 -235 0
45 236 0
81 236 0
-45 -81 -236 0
77 237 0
41 237 0
-237 -77 -41 0
39 238 0
75 238 0
-39 -75 -238 0
73 239 0
37 239 0
-73 -239 -37 0
75 240 0
-239 240 0
-240 -75 239 0
39 241 0
241 -239 0
-241 -39 239 0
41 242 0
-241 -240 -238 242 0
241 -242 -41 0
240 -242 -41 0
-242 -41 238 0
77 243 0
-241 -240 -238 243 0
241 -77 -243 0
-77 240 -243 0
-77 238 -243 0
43 244 0
-237 244 -242 -243 0
-244 243 -43 0
-244 242 -43 0
237 -244 -43 0
79 245 0
43 245 0
-79 -245 -43 0
79 246 0
-237 -242 246 -243 0
-246 -79 243 0
-246 -79 242 0
-246 -79 237 0
81 247 0
-246 247 -244 -245 0
-81 -247 246 0
-81 -247 245 0
244 -81 -247 0
45 248 0
-246 248 -244 -245 0
-45 -248 246 0
-45 -248 245 0
-45 244 -248 0
47 249 0
249 -247 -236 -248 0
-47 248 -249 0
-47 247 -249 0
236 -47 -249 0
83 250 0
47 250 0
-83 -250 -47 0
83 251 0
-247 -236 -248 251 0
-83 -251 248 0
-83 -251 247 0
236 -83 -251 0
49 252 0
-251 -250 -249 252 0
-252 -49 251 0
-252 250 -49 0
249 -252 -49 0
85 253 0
-251 253 -250 -249 0
-85 -253 251 0
-85 -253 250 0
249 -85 -253 0
85 254 0
49 254 0
-85 -49 -254 0
87 255 0
255 -252 -253 -254 0
-255 254 -87 0
253 -255 -87 0
-255 -87 252 0
51 256 0
-252 -253 256 -254 0
-51 -256 254 0
-51 253 -256 0
-51 -256 252 0
51 257 0
87 257 0
-51 -87 -257 0
257 -53 0
256 -53 0
255 -53 0
37 258 0
73 258 0
-37 -73 -258 0
75 -259 39 0
-258 -259 39 0
75 -258 -259 0
259 -39 -75 0
259 -39 258 0
259 -75 258 0
77 -260 41 0
259 77 -260 0
259 -260 41 0
-77 260 -41 0
260 -77 -259 0
260 -41 -259 0
43 -261 79 0
260 -261 79 0
43 260 -261 0
-79 261 -43 0
261 -79 -260 0
261 -43 -260 0
81 -262 45 0
261 -262 45 0
81 261 -262 0
262 -45 -81 0
262 -45 -261 0
262 -81 -261 0
-263 47 83 0
262 -263 83 0
262 -263 47 0
-83 -47 263 0
263 -83 -262 0
263 -47 -262 0
49 85 -264 0
85 -264 263 0
49 -264 263 0
-85 264 -49 0
264 -85 -263 0
264 -49 -263 0
51 -265 87 0
51 -265 264 0
-265 87 264 0
265 -51 -87 0
265 -51 -264 0
265 -87 -264 0
89 53 265 -266 0
-265 53 -266 -89 0
89 -265 -266 -53 0
265 -266 -89 -53 0
266 -53 -89 -265 0
89 266 265 -53 0
53 266 265 -89 0
89 -265 53 266 0
-107 -266 0
91 -267 -93 0
93 -267 -91 0
267 -91 -93 0
91 93 267 0
-73 -268 214 0
-268 -214 73 0
-73 268 -214 0
268 73 214 0
-73 269 0
91 269 0
73 -91 -269 0
-268 -270 -269 0
-270 -269 -267 0
-268 -270 -267 0
268 269 270 0
269 267 270 0
268 267 270 0
214 271 0
-73 271 0
-73 271 214 0
-214 73 -271 0
-272 222 -271 0
-272 271 -222 0
272 -222 -271 0
271 222 272 0
273 -91 0
273 -93 0
91 93 -273 0
273 -274 -95 0
-273 95 -274 0
274 -273 -95 0
274 273 95 0
-275 272 -274 0
-275 270 -274 0
-275 272 270 0
274 -272 275 0
-270 274 275 0
-270 -272 275 0
271 276 0
276 -222 0
222 -271 -276 0
-229 276 -277 0
229 -276 -277 0
-229 277 -276 0
276 229 277 0
278 -95 0
-273 278 0
95 273 -278 0
-97 278 -279 0
-278 97 -279 0
279 -278 -97 0
279 97 278 0
-280 277 -279 0
275 -280 -279 0
275 -280 277 0
279 280 -277 0
279 -275 280 0
-275 280 -277 0
-97 281 0
-278 281 0
97 278 -281 0
-282 281 -99 0
-282 -281 99 0
-281 282 -99 0
281 99 282 0
229 283 0
276 283 0
229 276 283 0
-229 -283 -276 0
-79 284 0
-228 284 0
79 228 -284 0
-81 284 -285 0
81 -285 -284 0
285 -81 -284 0
285 81 284 0
-286 285 -283 0
-286 283 -285 0
286 -283 -285 0
286 285 283 0
-282 286 -287 0
286 -287 280 0
-282 -287 280 0
-286 282 287 0
-286 -280 287 0
-280 282 287 0
288 -99 0
-281 288 0
99 281 -288 0
-289 -101 288 0
-289 101 -288 0
289 -101 -288 0
289 101 288 0
289 -290 -287 0
-289 -290 287 0
-289 290 -287 0
289 290 287 0
291 -81 0
291 -284 0
81 284 -291 0
-83 291 -292 0
-292 -291 83 0
-83 292 -291 0
291 292 83 0
283 293 0
293 -285 0
285 -283 -293 0
293 -292 -294 0
292 -293 -294 0
-292 -293 294 0
293 292 294 0
290 47 294 0
-290 47 -294 0
-290 -47 294 0
290 -47 -294 0
-15 0
-33 0
-51 0
-69 0
-87 0
-105 0
-35 130 0
129 -35 0
-35 109 0
-35 -17 0
-19 -295 1 0
-1 19 -295 0
295 -1 -19 0
19 1 295 0
37 296 0
296 -295 0
-296 -37 295 0
39 297 0
-296 297 0
296 -39 -297 0
3 113 21 -298 0
-113 -21 3 -298 0
-3 -113 21 -298 0
-3 -21 113 -298 0
298 -3 -21 -113 0
-3 113 298 21 0
-21 3 113 298 0
-113 3 298 21 0
39 299 0
299 -298 0
-39 298 -299 0
-296 300 0
-298 300 0
296 298 -300 0
-301 131 5 23 0
-301 -23 5 -131 0
-301 -131 23 -5 0
-301 -23 131 -5 0
301 -5 -23 -131 0
131 301 23 -5 0
-23 131 5 301 0
5 301 -131 23 0
301 302 0
-297 -299 -300 302 0
-301 -302 300 0
-301 -302 299 0
-301 -302 297 0
41 303 0
303 -297 -299 -300 0
-41 300 -303 0
299 -41 -303 0
-41 297 -303 0
41 304 0
301 304 0
-41 -301 -304 0
25 7 132 -305 0
-132 7 -25 -305 0
25 -132 -305 -7 0
-25 132 -305 -7 0
305 -7 -25 -132 0
25 132 305 -7 0
7 -25 132 305 0
25 -132 7 305 0
305 306 0
-302 306 -304 -303 0
-306 304 -305 0
-306 303 -305 0
-306 -305 302 0
43 307 0
-302 -304 -303 307 0
304 -307 -43 0
-307 303 -43 0
-307 302 -43 0
43 308 0
305 308 0
-43 -305 -308 0
-309 9 133 27 0
-309 9 -27 -133 0
-9 -309 -133 27 0
-9 -309 -27 133 0
309 -9 -27 -133 0
-9 133 27 309 0
9 -27 133 309 0
9 -133 27 309 0
309 310 0
-306 -307 -308 310 0
308 -309 -310 0
-309 -310 307 0
-309 306 -310 0
45 311 0
-306 -307 -308 311 0
-45 308 -311 0
-45 -311 307 0
-45 306 -311 0
45 312 0
309 312 0
-45 -309 -312 0
134 29 11 -313 0
-134 11 -313 -29 0
-134 -11 29 -313 0
-11 134 -313 -29 0
313 -11 -29 -134 0
313 -11 134 29 0
313 134 11 -29 0
-134 313 29 11 0
313 314 0
-312 314 -310 -311 0
-314 312 -313 0
-314 -313 311 0
-314 310 -313 0
47 315 0
-312 -310 315 -311 0
-315 -47 312 0
-315 -47 311 0
-315 -47 310 0
47 316 0
313 316 0
-47 -313 -316 0
31 13 135 -317 0
-31 13 -135 -317 0
31 -135 -13 -317 0
-31 135 -13 -317 0
317 -13 -31 -135 0
31 317 135 -13 0
-31 13 317 135 0
31 13 -135 317 0
317 318 0
-316 -315 -314 318 0
-318 316 -317 0
-318 -317 315 0
-318 -317 314 0
49 319 0
-316 -315 319 -314 0
-319 -49 316 0
-319 -49 315 0
-319 -49 314 0
49 320 0
317 320 0
-49 -317 -320 0
136 33 -321 15 0
-136 -321 15 -33 0
-136 -15 33 -321 0
136 -15 -321 -33 0
321 -15 -33 -136 0
136 -15 33 321 0
136 15 321 -33 0
-136 33 15 321 0
321 322 0
-319 -318 -320 322 0
-322 320 -321 0
-322 319 -321 0
-322 -321 318 0
51 323 0
-319 -318 -320 323 0
-51 320 -323 0
-51 319 -323 0
-51 -323 318 0
51 324 0
321 324 0
-51 -321 -324 0
324 -53 0
323 -53 0
-53 322 0
-138 324 0
-138 323 0
-138 322 0
-151 157 -325 0
-157 -325 151 0
-157 -151 325 0
325 157 151 0
7 155 325 0
7 -155 -325 0
155 -325 -7 0
325 -155 -7 0
165 158 -326 0
165 -160 -326 0
158 -160 -326 0
326 -165 -158 0
326 160 -165 0
326 160 -158 0
-45 327 0
-159 327 0
45 159 -327 0
-328 -47 327 0
-328 -327 47 0
-47 -327 328 0
327 47 328 0
-329 -326 328 0
326 -328 -329 0
-328 -326 329 0
326 329 328 0
-27 330 0
330 -163 0
27 163 -330 0
330 -331 -29 0
-331 -330 29 0
331 -330 -29 0
330 331 29 0
162 332 0
-164 332 0
-332 164 -162 0
-331 -333 332 0
331 -333 -332 0
-331 333 -332 0
331 333 332 0
333 11 329 0
-329 -333 11 0
-11 -329 333 0
-11 -333 329 0
149 -148 -334 0
148 -149 -334 0
-149 -148 334 0
148 149 334 0
147 3 334 -335 0
-3 -147 334 -335 0
-3 147 -335 -334 0
3 -147 -335 -334 0
-3 -147 335 -334 0
147 3 335 -334 0
3 -147 335 334 0
-3 147 335 334 0
-335 0
-47 336 0
-327 336 0
47 327 -336 0
-337 -49 336 0
-337 49 -336 0
-49 337 -336 0
49 336 337 0
-328 -338 -333 0
326 -338 -333 0
326 -328 -338 0
333 338 328 0
333 -326 338 0
-326 338 328 0
339 -29 0
339 -330 0
29 330 -339 0
-31 339 -340 0
31 -340 -339 0
340 -31 -339 0
340 339 31 0
-331 341 0
-332 341 0
331 332 -341 0
-340 341 -342 0
340 -342 -341 0
-340 342 -341 0
340 341 342 0
-343 338 -342 0
-337 -343 -342 0
-337 -343 338 0
-338 343 342 0
343 337 342 0
-338 343 337 0
344 -49 0
344 -336 0
49 336 -344 0
-51 344 -345 0
51 -345 -344 0
-51 345 -344 0
51 344 345 0
-346 345 -343 0
-346 -345 343 0
346 -345 -343 0
346 345 343 0
-31 347 0
347 -339 0
31 339 -347 0
347 -348 -33 0
33 -348 -347 0
348 -347 -33 0
347 33 348 0
349 -340 0
349 -341 0
340 341 -349 0
349 -350 -348 0
-350 348 -349 0
-348 350 -349 0
349 350 348 0
346 15 350 0
-350 -346 15 0
-15 -346 350 0
-350 -15 346 0
-150 140 -351 0
-140 -351 150 0
351 -140 -150 0
351 140 150 0
5 146 351 0
5 -146 -351 0
146 -351 -5 0
-146 351 -5 0
-338 -352 337 0
-337 -352 338 0
352 -337 -338 0
352 337 338 0
13 342 352 0
13 -342 -352 0
-352 -13 342 0
352 -13 -342 0
-350 -345 -353 0
-350 -353 343 0
-345 -353 343 0
345 353 350 0
353 -343 350 0
345 353 -343 0
-51 354 0
354 -344 0
51 344 -354 0
354 -355 -53 0
53 -354 -355 0
-354 355 -53 0
354 53 355 0
-356 -353 355 0
-356 353 -355 0
-353 356 -355 0
353 356 355 0
357 -33 0
357 -347 0
33 347 -357 0
-348 358 0
358 -349 0
348 349 -358 0
35 -359 357 358 0
-35 -357 -359 358 0
-35 -358 -359 357 0
35 -357 -358 -359 0
359 -35 -357 -358 0
359 35 -358 357 0
359 35 -357 358 0
359 -35 357 358 0
17 359 -360 356 0
359 -17 -360 -356 0
-17 -360 -359 356 0
17 -360 -356 -359 0
360 -17 -356 -359 0
17 360 -359 356 0
17 359 360 -356 0
359 360 -17 356 0
-360 0
1 -200 0
-1 200 0
188 -35 0
-35 187 0
-35 167 0
-35 -53 0
198 361 0
202 361 0
-198 -202 -361 0
59 362 0
202 362 0
-59 -202 -362 0
59 363 0
198 363 0
-59 -198 -363 0
204 364 0
-363 364 -361 -362 0
-204 -364 363 0
-204 -364 362 0
-204 -364 361 0
61 365 0
-363 365 -361 -362 0
-61 -365 363 0
-61 -365 362 0
-61 -365 361 0
61 366 0
204 366 0
-61 -204 -366 0
206 367 0
-365 367 -364 -366 0
366 -367 -206 0
-367 365 -206 0
-367 -206 364 0
63 368 0
-365 -364 -366 368 0
366 -368 -63 0
365 -368 -63 0
-368 -63 364 0
63 369 0
206 369 0
-63 -206 -369 0
197 370 0
370 -367 -368 -369 0
-370 -197 369 0
-370 -197 368 0
-370 367 -197 0
65 371 0
-367 -368 -369 371 0
-371 369 -65 0
-371 368 -65 0
-371 367 -65 0
65 372 0
197 372 0
-65 -197 -372 0
209 373 0
-371 -370 373 -372 0
-373 372 -209 0
-373 -209 371 0
370 -373 -209 0
67 374 0
-371 374 -370 -372 0
372 -374 -67 0
-374 371 -67 0
370 -374 -67 0
67 375 0
209 375 0
-67 -209 -375 0
211 376 0
-373 -375 376 -374 0
375 -211 -376 0
374 -211 -376 0
-211 -376 373 0
69 377 0
377 -373 -375 -374 0
375 -377 -69 0
374 -377 -69 0
373 -377 -69 0
69 378 0
211 378 0
-69 -211 -378 0
-71 378 0
377 -71 0
-71 376 0
378 -196 0
377 -196 0
376 -196 0
-379 200 -55 0
-379 55 -200 0
379 -200 -55 0
379 55 200 0
73 380 0
379 380 0
-73 -379 -380 0
57 201 -381 199 0
-57 -381 199 -201 0
57 -199 -381 -201 0
201 -57 -199 -381 0
-57 -199 381 -201 0
57 201 -199 381 0
201 -57 199 381 0
57 199 381 -201 0
381 382 0
382 -380 0
-381 380 -382 0
75 383 0
381 383 0
-75 -381 -383 0
75 384 0
384 -380 0
-75 380 -384 0
-385 59 202 198 0
-385 198 -202 -59 0
-385 59 -198 -202 0
-385 202 -198 -59 0
385 -198 -202 -59 0
59 385 202 -198 0
385 202 198 -59 0
59 385 198 -202 0
385 386 0
-383 386 -384 -382 0
-385 -386 384 0
-385 -386 383 0
-385 -386 382 0
77 387 0
-383 -384 387 -382 0
-77 384 -387 0
-77 383 -387 0
-77 382 -387 0
77 388 0
385 388 0
-77 -385 -388 0
61 -389 203 204 0
-61 -389 -203 204 0
61 -389 -203 -204 0
-61 -389 203 -204 0
389 -61 -203 -204 0
389 61 203 -204 0
389 -61 203 204 0
389 61 -203 204 0
389 390 0
-388 -386 390 -387 0
-389 -390 388 0
-389 -390 387 0
-389 -390 386 0
79 391 0
-388 -386 391 -387 0
-79 -391 388 0
-79 -391 387 0
-79 -391 386 0
79 392 0
389 392 0
-79 -389 -392 0
63 206 205 -393 0
-205 206 -63 -393 0
-205 63 -206 -393 0
205 -206 -63 -393 0
393 -205 -206 -63 0
393 63 205 -206 0
393 206 205 -63 0
393 -205 63 206 0
393 394 0
-392 -391 -390 394 0
-394 392 -393 0
-394 391 -393 0
-394 -393 390 0
81 395 0
395 -392 -391 -390 0
-395 -81 392 0
-395 -81 391 0
-395 -81 390 0
81 396 0
393 396 0
-81 -393 -396 0
207 -397 65 197 0
-397 -207 -65 197 0
-397 -197 -207 65 0
207 -397 -197 -65 0
-197 397 -207 -65 0
207 -197 397 65 0
207 397 -65 197 0
397 -207 65 197 0
397 398 0
-394 -395 -396 398 0
-397 -398 396 0
395 -397 -398 0
-397 -398 394 0
83 399 0
-394 -395 -396 399 0
-83 -399 396 0
-83 395 -399 0
-83 394 -399 0
83 400 0
397 400 0
-83 -397 -400 0
208 209 67 -401 0
209 -401 -208 -67 0
67 -401 -208 -209 0
208 -401 -209 -67 0
-208 -209 -67 401 0
208 67 -209 401 0
208 209 -67 401 0
209 67 -208 401 0
401 402 0
-400 402 -398 -399 0
400 -401 -402 0
-401 -402 399 0
-401 -402 398 0
85 403 0
-400 -398 -399 403 0
400 -85 -403 0
-85 -403 399 0
-85 -403 398 0
85 404 0
401 404 0
-85 -401 -404 0
69 -405 210 211 0
-210 -405 211 -69 0
69 -210 -405 -211 0
-405 -211 210 -69 0
-210 -211 405 -69 0
69 -211 210 405 0
210 211 405 -69 0
69 -210 211 405 0
405 406 0
-403 -402 406 -404 0
-405 -406 404 0
-405 -406 403 0
-405 402 -406 0
87 407 0
-403 -402 -404 407 0
404 -87 -407 0
-87 403 -407 0
402 -87 -407 0
87 408 0
405 408 0
-87 -405 -408 0
408 -89 0
-89 407 0
406 -89 0
-213 408 0
-213 407 0
-213 406 0
-214 216 -409 0
214 -216 -409 0
-214 409 -216 0
214 409 216 0
219 21 409 -410 0
-21 -219 409 -410 0
-21 219 -410 -409 0
-219 21 -410 -409 0
-21 -219 -409 410 0
219 21 -409 410 0
-219 21 409 410 0
-21 219 409 410 0
-410 0
234 -233 -411 0
234 231 -411 0
231 -233 -411 0
-234 233 411 0
-234 -231 411 0
-231 233 411 0
-61 412 0
412 -232 0
61 232 -412 0
412 -63 -413 0
-412 63 -413 0
-412 -63 413 0
63 412 413 0
140 414 0
140 157 414 0
157 414 0
-140 -157 -414 0
-415 160 -414 0
-160 -415 414 0
415 -160 -414 0
160 415 414 0
413 411 415 -416 0
415 -416 -413 -411 0
-415 413 -416 -411 0
-415 411 -416 -413 0
-415 416 -413 -411 0
-415 416 413 411 0
416 411 415 -413 0
416 413 415 -411 0
-417 -229 -235 0
-417 227 -235 0
-417 -229 227 0
417 229 235 0
417 235 -227 0
417 229 -227 0
417 -418 -285 0
417 -418 416 0
-418 416 -285 0
-417 285 418 0
-417 418 -416 0
285 418 -416 0
-415 -419 411 0
-415 -419 -413 0
-419 411 -413 0
419 415 -411 0
419 413 415 0
419 413 -411 0
-63 420 0
-412 420 0
63 412 -420 0
-421 420 -65 0
-420 -421 65 0
-420 421 -65 0
65 421 420 0
160 422 0
160 422 -414 0
422 -414 0
-160 -422 414 0
-423 -422 328 0
-328 -423 422 0
423 -328 -422 0
423 422 328 0
419 423 421 -424 0
423 -419 -421 -424 0
-423 -419 421 -424 0
419 -423 -421 -424 0
-423 -419 -421 424 0
419 -423 424 421 0
419 423 -421 424 0
423 -419 424 421 0
-292 424 -425 0
-292 418 -425 0
418 424 -425 0
292 425 -424 0
292 -418 425 0
-418 425 -424 0
-426 -423 -421 0
419 -426 -421 0
419 -426 -423 0
423 421 426 0
-419 421 426 0
423 -419 426 0
427 -65 0
-420 427 0
65 420 -427 0
-428 427 -67 0
-428 67 -427 0
-427 428 -67 0
67 427 428 0
429 -422 328 0
429 -422 0
328 429 0
-328 422 -429 0
-430 -429 337 0
-430 -337 429 0
430 -337 -429 0
429 430 337 0
430 -431 428 426 0
-428 -426 430 -431 0
-426 -430 -431 428 0
-428 -430 -431 426 0
-428 -426 -430 431 0
-430 431 428 426 0
-428 431 430 426 0
-426 431 430 428 0
-83 432 0
-291 432 0
83 291 -432 0
-85 -433 432 0
-432 85 -433 0
-432 -85 433 0
85 433 432 0
-434 431 -433 0
-434 -433 425 0
-434 431 425 0
434 433 -431 0
434 433 -425 0
434 -431 -425 0
435 -85 0
435 -432 0
85 432 -435 0
435 -436 -87 0
-435 87 -436 0
-435 436 -87 0
435 87 436 0
-434 -437 436 0
434 -437 -436 0
-434 -436 437 0
434 436 437 0
-428 -430 -438 0
-428 426 -438 0
-430 426 -438 0
438 430 428 0
-426 438 428 0
-426 438 430 0
439 -67 0
439 -427 0
67 427 -439 0
439 -440 -69 0
69 -439 -440 0
-439 440 -69 0
69 439 440 0
441 -429 337 0
441 -429 0
337 441 0
-441 -337 429 0
-441 -442 345 0
-442 441 -345 0
442 -345 -441 0
441 442 345 0
-443 442 438 440 0
-443 442 -440 -438 0
-442 -443 440 -438 0
-442 -443 438 -440 0
-442 443 -440 -438 0
-442 438 443 440 0
442 438 443 -440 0
442 443 440 -438 0
33 443 -444 437 0
443 -437 -444 -33 0
-443 -444 437 -33 0
33 -443 -437 -444 0
444 -443 -437 -33 0
33 444 -443 437 0
33 444 443 -437 0
444 443 437 -33 0
-444 0
-445 -220 222 0
-445 220 -222 0
-220 445 -222 0
222 220 445 0
23 226 445 0
23 -226 -445 0
-445 -23 226 0
-23 445 -226 0
73 19 215 0
-73 -215 19 0
-73 -19 215 0
-19 73 -215 0
-417 285 -446 0
417 -446 -285 0
446 -285 -417 0
417 285 446 0
27 -447 416 446 0
-27 -446 -447 416 0
-27 -447 -416 446 0
-446 27 -447 -416 0
-27 -446 447 -416 0
27 447 -416 446 0
-446 27 447 416 0
-27 447 416 446 0
-447 0
433 -448 -425 0
-433 -448 425 0
448 -433 -425 0
448 433 425 0
448 31 431 -449 0
-31 431 -449 -448 0
-31 448 -449 -431 0
31 -449 -431 -448 0
-31 449 -431 -448 0
448 31 449 -431 0
31 431 449 -448 0
-31 448 431 449 0
-449 0
292 -418 -450 0
-292 418 -450 0
450 -292 -418 0
292 418 450 0
-451 29 450 424 0
-451 -450 424 -29 0
-451 450 -424 -29 0
-451 29 -450 -424 0
451 -450 -424 -29 0
451 29 450 -424 0
451 29 -450 424 0
451 450 424 -29 0
-451 0
443 -436 -452 0
434 443 -452 0
434 -436 -452 0
-443 452 436 0
-434 -443 452 0
-434 452 436 0
453 -87 0
453 -435 0
87 435 -453 0
453 -454 -89 0
89 -453 -454 0
-453 454 -89 0
453 89 454 0
454 -455 -452 0
-454 452 -455 0
-454 455 -452 0
455 454 452 0
-442 438 -456 0
438 -440 -456 0
-442 -440 -456 0
456 442 -438 0
456 440 -438 0
456 442 440 0
457 -69 0
-439 457 0
69 439 -457 0
-458 456 71 457 0
-458 -71 457 -456 0
-458 -457 71 -456 0
-458 -71 456 -457 0
-71 458 -457 -456 0
458 456 -457 71 0
-71 458 456 457 0
458 71 457 -456 0
-441 459 345 0
345 459 0
-441 459 0
441 -345 -459 0
459 458 -460 355 0
-458 -459 -460 355 0
459 -458 -460 -355 0
458 -459 -460 -355 0
-458 -459 460 -355 0
459 458 460 -355 0
458 -459 460 355 0
459 -458 460 355 0
35 455 460 0
35 -455 -460 0
-35 -455 460 0
-35 455 -460 0
-89 257 0
256 -89 0
255 -89 0
-89 -53 0
-73 -461 37 0
73 -461 -37 0
461 -37 -73 0
461 73 37 0
91 462 0
462 -461 0
461 -462 -91 0
93 463 0
463 -462 0
462 -463 -93 0
75 39 -464 258 0
-258 -75 39 -464 0
75 -258 -39 -464 0
-39 -75 -464 258 0
464 -39 -75 -258 0
75 -39 464 258 0
-75 39 464 258 0
75 -258 39 464 0
93 465 0
465 -464 0
464 -465 -93 0
466 -462 0
466 -464 0
462 464 -466 0
259 77 -467 41 0
-77 -467 -259 41 0
77 -467 -259 -41 0
259 -77 -467 -41 0
467 -41 -77 -259 0
259 77 -41 467 0
259 -77 467 41 0
77 -259 467 41 0
467 468 0
-463 -466 -465 468 0
-467 466 -468 0
465 -467 -468 0
-467 463 -468 0
95 469 0
469 -463 -466 -465 0
466 -469 -95 0
465 -469 -95 0
463 -469 -95 0
95 470 0
467 470 0
-95 -467 -470 0
43 260 -471 79 0
43 -260 -79 -471 0
-260 -471 -43 79 0
-79 260 -471 -43 0
471 -43 -79 -260 0
260 471 -43 79 0
43 -79 260 471 0
43 -260 471 79 0
471 472 0
-469 -468 472 -470 0
-472 -471 470 0
-472 469 -471 0
-472 -471 468 0
97 473 0
-469 -468 473 -470 0
-97 -473 470 0
-97 469 -473 0
-97 -473 468 0
97 474 0
471 474 0
-97 -471 -474 0
81 261 -475 45 0
-81 -261 -475 45 0
-45 81 -261 -475 0
-45 -81 261 -475 0
475 -45 -81 -261 0
-45 81 261 475 0
-81 261 475 45 0
81 -261 475 45 0
475 476 0
-474 -472 -473 476 0
-476 474 -475 0
-476 473 -475 0
-476 472 -475 0
99 477 0
-474 -472 477 -473 0
474 -477 -99 0
473 -477 -99 0
472 -477 -99 0
99 478 0
475 478 0
-99 -475 -478 0
262 -479 47 83 0
-83 -479 47 -262 0
-47 -479 -262 83 0
-83 -47 262 -479 0
479 -47 -83 -262 0
479 -47 262 83 0
479 -83 262 47 0
479 47 -262 83 0
479 480 0
-476 -478 480 -477 0
-479 -480 478 0
477 -479 -480 0
-479 -480 476 0
101 481 0
-476 -478 481 -477 0
-101 -481 478 0
-101 477 -481 0
-101 476 -481 0
101 482 0
479 482 0
-101 -479 -482 0
49 85 263 -483 0
49 -85 -263 -483 0
85 -49 -263 -483 0
-85 -49 263 -483 0
483 -49 -85 -263 0
483 85 -49 263 0
483 49 -85 263 0
483 49 85 -263 0
483 484 0
484 -480 -481 -482 0
-484 482 -483 0
-484 481 -483 0
-484 480 -483 0
103 485 0
485 -480 -481 -482 0
-103 -485 482 0
-103 -485 481 0
-103 -485 480 0
103 486 0
483 486 0
-103 -483 -486 0
51 87 -487 264 0
51 -487 -264 -87 0
-51 87 -487 -264 0
-51 -487 264 -87 0
487 -51 -87 -264 0
-51 487 87 264 0
51 487 264 -87 0
51 487 87 -264 0
487 488 0
-484 -486 488 -485 0
486 -487 -488 0
485 -487 -488 0
484 -487 -488 0
105 489 0
-484 489 -486 -485 0
486 -105 -489 0
485 -105 -489 0
484 -105 -489 0
105 490 0
487 490 0
-105 -487 -490 0
490 -107 0
489 -107 0
488 -107 0
490 -266 0
489 -266 0
488 -266 0
-289 -491 -294 0
-289 -491 287 0
-491 -294 287 0
289 491 294 0
289 491 -287 0
491 -287 294 0
492 -101 0
492 -288 0
101 288 -492 0
492 -103 -493 0
-492 -493 103 0
-492 493 -103 0
493 492 103 0
493 -494 -491 0
-493 491 -494 0
-493 494 -491 0
493 491 494 0
495 -292 0
495 -293 0
292 293 -495 0
495 -433 -496 0
433 -495 -496 0
496 -433 -495 0
496 495 433 0
496 49 494 0
49 -494 -496 0
496 -49 -494 0
494 -49 -496 0
-493 491 -497 0
491 -497 -496 0
-493 -497 -496 0
493 497 -491 0
496 497 -491 0
493 496 497 0
-103 498 0
-492 498 0
103 492 -498 0
-499 -105 498 0
-499 105 -498 0
-498 -105 499 0
105 499 498 0
500 -433 0
500 -495 0
433 495 -500 0
-501 500 -436 0
-501 436 -500 0
501 -436 -500 0
501 500 436 0
-499 -501 -502 0
-501 497 -502 0
-499 497 -502 0
502 501 499 0
502 501 -497 0
502 499 -497 0
503 -105 0
503 -498 0
105 498 -503 0
-504 502 503 107 0
-504 503 -107 -502 0
-504 -503 107 -502 0
-504 502 -503 -107 0
-503 -107 504 -502 0
502 -503 107 504 0
502 503 -107 504 0
503 107 504 -502 0
505 -436 0
505 -500 0
436 500 -505 0
-454 505 -506 0
454 -506 -505 0
-454 506 -505 0
454 506 505 0
53 506 -507 504 0
-504 506 -507 -53 0
-507 -506 504 -53 0
-504 53 -507 -506 0
-504 -506 507 -53 0
53 -506 504 507 0
-504 53 506 507 0
506 504 507 -53 0
-507 0
-508 -280 282 0
-508 -282 280 0
-282 508 -280 0
508 280 282 0
508 286 -509 45 0
-508 -45 286 -509 0
-45 508 -286 -509 0
-508 -286 -509 45 0
-508 -45 -286 509 0
508 -286 509 45 0
-508 286 509 45 0
-45 508 286 509 0
-509 0
37 73 91 0
37 -73 -91 0
73 -91 -37 0
-73 91 -37 0
-270 274 -510 0
-510 270 -274 0
-270 510 -274 0
274 510 270 0
510 272 -511 41 0
-510 272 -41 -511 0
-272 510 -41 -511 0
-272 -510 -511 41 0
511 -272 -510 -41 0
511 -272 510 41 0
511 -510 272 41 0
511 510 272 -41 0
-511 0
-512 269 -267 0
-512 -269 267 0
-269 -267 512 0
269 267 512 0
268 -513 39 512 0
-268 -513 -39 512 0
268 -512 -513 -39 0
-268 -512 -513 39 0
-268 -512 513 -39 0
268 -512 513 39 0
-268 513 39 512 0
268 513 -39 512 0
-513 0
-514 499 -497 0
-499 -514 497 0
514 -499 -497 0
514 497 499 0
51 501 514 0
51 -501 -514 0
-51 501 -514 0
514 -51 -501 0
279 -275 -515 0
275 -515 -279 0
-275 515 -279 0
279 275 515 0
43 277 -516 515 0
-515 277 -43 -516 0
-43 -277 -516 515 0
43 -515 -277 -516 0
-515 -43 516 -277 0
43 516 -277 515 0
43 -515 277 516 0
277 -43 516 515 0
-516 0
-17 0
-35 0
-53 0
-71 0
-89 0
-107 0
